n=10;
m=12;
Ha=[[0.860000,0.860000,0.860000,0.860000,0.860000,0.860000,0.860000,0.860000,0.000000,0.000000],[0.860000,0.860000,0.860000,0.860000,0.860000,0.860000,0.860000,0.860000,0.000000,0.000000],[0.860000,0.860000,0.860000,0.860000,0.860000,0.860000,0.860000,0.860000,0.000000,0.000000],[0.054000,0.054000,0.054000,0.054000,0.054000,0.054000,0.054000,0.054000,0.054000,0.054000],[2.000000,2.000000,2.000000,0.054000,0.054000,0.054000,0.054000,0.054000,0.054000,0.054000],[2.000000,2.000000,2.000000,0.054000,0.054000,0.054000,0.054000,0.054000,0.054000,0.054000],[2.000000,2.000000,2.000000,0.054000,0.054000,0.054000,0.054000,0.054000,0.054000,0.054000],[0.054000,0.054000,0.054000,0.054000,0.054000,0.054000,0.054000,0.054000,0.054000,0.054000],[0.054000,0.054000,0.054000,0.054000,0.054000,0.054000,0.054000,0.054000,0.054000,0.054000],[0.054000,0.560000,0.560000,0.560000,0.560000,0.560000,0.054000,0.054000,0.054000,0.054000],[0.054000,0.560000,0.560000,0.560000,0.560000,0.560000,0.054000,0.054000,0.054000,0.054000],[0.054000,0.560000,0.560000,0.560000,0.560000,0.560000,0.054000,0.054000,0.054000,0.054000]];
Ca=[[0.560000,0.560000,0.560000,0.560000,0.560000,0.560000,0.560000,0.560000,0.000000,0.000000],[0.560000,0.560000,0.560000,0.560000,0.560000,0.560000,0.560000,0.560000,0.000000,0.000000],[0.560000,0.560000,0.560000,0.560000,0.560000,0.560000,0.560000,0.560000,0.000000,0.000000],[0.720000,0.720000,0.720000,0.720000,0.720000,0.720000,0.720000,0.720000,0.720000,0.720000],[0.430000,0.430000,0.430000,0.720000,0.720000,0.720000,0.720000,0.720000,0.720000,0.720000],[0.430000,0.430000,0.430000,0.720000,0.720000,0.720000,0.720000,0.720000,0.720000,0.720000],[0.430000,0.430000,0.430000,0.720000,0.720000,0.720000,0.720000,0.720000,0.720000,0.720000],[0.720000,0.720000,0.720000,0.720000,0.720000,0.720000,0.720000,0.720000,0.720000,0.720000],[0.720000,0.720000,0.720000,0.720000,0.720000,0.720000,0.720000,0.720000,0.720000,0.720000],[0.720000,0.620000,0.620000,0.620000,0.620000,0.620000,0.720000,0.720000,0.720000,0.720000],[0.720000,0.620000,0.620000,0.620000,0.620000,0.620000,0.720000,0.720000,0.720000,0.720000],[0.720000,0.620000,0.620000,0.620000,0.620000,0.620000,0.720000,0.720000,0.720000,0.720000]];
Hp=[[1.000000,1.000000,1.000000,1.000000,1.000000,1.000000,1.000000,1.000000,0.000000,0.000000],[1.000000,1.000000,1.000000,1.000000,1.000000,1.000000,1.000000,1.000000,0.000000,0.000000],[1.000000,1.000000,1.000000,1.000000,1.000000,1.000000,1.000000,1.000000,0.000000,0.000000],[0.200000,0.200000,0.200000,0.200000,0.200000,0.200000,0.200000,0.200000,0.200000,0.200000],[2.000000,2.000000,2.000000,0.200000,0.200000,0.200000,0.200000,0.200000,0.200000,0.200000],[2.000000,2.000000,2.000000,0.200000,0.200000,0.200000,0.200000,0.200000,0.200000,0.200000],[2.000000,2.000000,2.000000,0.200000,0.200000,0.200000,0.200000,0.200000,0.200000,0.200000],[0.200000,0.200000,0.200000,0.200000,0.200000,0.200000,0.200000,0.200000,0.200000,0.200000],[0.200000,0.200000,0.200000,0.200000,0.200000,0.200000,0.200000,0.200000,0.200000,0.200000],[0.200000,6.000000,6.000000,6.000000,6.000000,6.000000,0.200000,0.200000,0.200000,0.200000],[0.200000,6.000000,6.000000,6.000000,6.000000,6.000000,0.200000,0.200000,0.200000,0.200000],[0.200000,6.000000,6.000000,6.000000,6.000000,6.000000,0.200000,0.200000,0.200000,0.200000]];
Cp=[[0.500000,0.500000,0.500000,0.500000,0.500000,0.500000,0.500000,0.500000,0.000000,0.000000],[0.500000,0.500000,0.500000,0.500000,0.500000,0.500000,0.500000,0.500000,0.000000,0.000000],[0.500000,0.500000,0.500000,0.500000,0.500000,0.500000,0.500000,0.500000,0.000000,0.000000],[0.630000,0.630000,0.630000,0.630000,0.630000,0.630000,0.630000,0.630000,0.630000,0.630000],[0.370000,0.370000,0.370000,0.630000,0.630000,0.630000,0.630000,0.630000,0.630000,0.630000],[0.370000,0.370000,0.370000,0.630000,0.630000,0.630000,0.630000,0.630000,0.630000,0.630000],[0.370000,0.370000,0.370000,0.630000,0.630000,0.630000,0.630000,0.630000,0.630000,0.630000],[0.630000,0.630000,0.630000,0.630000,0.630000,0.630000,0.630000,0.630000,0.630000,0.630000],[0.630000,0.630000,0.630000,0.630000,0.630000,0.630000,0.630000,0.630000,0.630000,0.630000],[0.630000,0.167000,0.167000,0.167000,0.167000,0.167000,0.630000,0.630000,0.630000,0.630000],[0.630000,0.167000,0.167000,0.167000,0.167000,0.167000,0.630000,0.630000,0.630000,0.630000],[0.630000,0.167000,0.167000,0.167000,0.167000,0.167000,0.630000,0.630000,0.630000,0.630000]];
